NAME : in_house_9_19
TYPE : TSP
DIMENSION : 9
EDGE_WEIGHT_TYPE : EXPLICIT
EDGE_WEIGHT_FORMAT : UPPER_ROW
COMMENT : INVERSION_SHIFT=9
EDGE_WEIGHT_SECTION
5
53
76
44
49
41
56
15
5
47
38
59
6
43
10
30
70
47
40
66
15
81
37
36
66
30
8
7
9
12
54
31
38
20
78
74
